p cnf 16 44
-7 -9 11 0
-6 -9 12 0
7 -9 -12 0
-2 -14 16 0
-1 -5 -11 0
-5 9 13 0
-1 3 10 0
2 -10 11 0
-2 -7 -14 0
-1 -3 16 0
-4 8 -12 0
9 12 13 0
-1 4 -5 0
11 -13 -14 0
6 -11 -15 0
-8 12 14 0
1 -5 13 0
-6 -8 14 0
3 -4 10 0
-5 -14 -16 0
-1 -2 -11 0
2 -6 -10 0
-6 7 13 0
-12 15 16 0
-3 4 -13 0
6 -14 16 0
6 -15 16 0
3 4 -9 0
4 5 14 0
-1 3 11 0
2 -11 -15 0
5 -6 -11 0
2 -6 13 0
-3 8 -12 0
-3 7 -16 0
-7 -8 -13 0
1 -12 -13 0
1 -8 10 0
3 7 12 0
7 15 -16 0
-1 5 -8 0
-2 10 15 0
1 -3 5 0
-5 8 -10 0
